(set-logic HORN)
(set-info :source |
    Benchmark: C_VC
    Output by Princess (http://www.philipp.ruemmer.org/princess.shtml)
|)
(set-info :status unsat)
(declare-fun inv_main18 (Int Int Int Int Int Int) Bool)
(declare-fun inv_main19 (Int Int Int Int Int Int) Bool)
(declare-fun inv_main4 (Int Int Int Int Int Int) Bool)
(assert (forall ((var0 Int) (var1 Int) (var2 Int) (var3 Int) (var4 Int)) (inv_main4 0 var4 var3 var2 var1 var0)))
(assert (forall ((var0 Int) (var1 Int) (var2 Int) (var3 Int) (var4 Int) (var5 Int)) (or (not (and (inv_main19 var5 var4 var3 var2 var1 var0) (= var1 0))) (inv_main18 var5 var4 var3 var2 var1 var0))))
(assert (forall ((var0 Int) (var1 Int) (var2 Int) (var3 Int) (var4 Int) (var5 Int) (var6 Int) (var7 Int) (var8 Int) (var9 Int) (var10 Int) (var11 Int) (var12 Int) (var13 Int) (var14 Int)) (or (not (and (inv_main4 var14 var13 var12 var11 var10 var9) (and (not (<= 0 (+ (+ 1 (* (- 1) var8)) (- 1)))) (and (not (= var7 0)) (and (and (and (and (and (and (= var8 var14) (= var6 var5)) (= var4 var3)) (= var2 var11)) (= var1 var10)) (= var0 var9)) (or (and (<= 0 (+ var3 (- 1))) (= var7 1)) (and (not (<= 0 (+ var3 (- 1)))) (= var7 0)))))))) (inv_main18 (+ var8 1) var6 var4 var6 var4 0))))
(assert (forall ((var0 Int) (var1 Int) (var2 Int) (var3 Int) (var4 Int) (var5 Int) (var6 Int) (var7 Int) (var8 Int) (var9 Int) (var10 Int) (var11 Int) (var12 Int) (var13 Int) (var14 Int)) (or (not (and (inv_main19 var11 var10 var9 var8 var7 var6) (and (and (not (<= 0 (+ (+ 1 (* (- 1) var5)) (- 1)))) (and (and (and (and (and (= var5 var11) (= var4 var10)) (= var3 var9)) (= var2 (* 2 var8))) (and (and (and (and (<= 0 (+ (+ 2 (* (- 1) (+ var7 (* (- 2) var12)))) (- 1))) (<= 0 (+ (+ 2 (* 1 (+ var7 (* (- 2) var12)))) (- 1)))) (or (not (<= 0 (+ (+ var7 (* (- 2) var12)) (- 1)))) (<= 0 (+ var7 (- 1))))) (or (not (<= 0 (+ (* (- 1) (+ var7 (* (- 2) var12))) (- 1)))) (<= 0 (+ (* (- 1) var7) (- 1))))) (= var1 var12))) (= var0 var6))) (and (not (or (not (and (and (and (and (<= 0 (+ (+ 2 (* (- 1) var13)) (- 1))) (<= 0 (+ (+ 2 (* 1 var13)) (- 1)))) (or (not (<= 0 (+ var13 (- 1)))) (<= 0 (+ var7 (- 1))))) (or (not (<= 0 (+ (* (- 1) var13) (- 1)))) (<= 0 (+ (* (- 1) var7) (- 1))))) (= var7 (+ (* 2 var14) var13)))) (= var13 1))) (not (= var7 0)))))) (inv_main18 (+ var5 1) var4 var3 var2 var1 var0))))
(assert (forall ((var0 Int) (var1 Int) (var2 Int) (var3 Int) (var4 Int) (var5 Int) (var6 Int) (var7 Int) (var8 Int) (var9 Int) (var10 Int) (var11 Int) (var12 Int) (var13 Int) (var14 Int)) (or (not (and (inv_main19 var11 var10 var9 var8 var7 var6) (and (and (not (<= 0 (+ (+ 1 (* (- 1) var5)) (- 1)))) (and (and (and (and (and (= var5 var11) (= var4 var10)) (= var3 var9)) (= var2 (* 2 var8))) (and (and (and (and (<= 0 (+ (+ 2 (* (- 1) (+ (+ var7 (- 1)) (* (- 2) var12)))) (- 1))) (<= 0 (+ (+ 2 (* 1 (+ (+ var7 (- 1)) (* (- 2) var12)))) (- 1)))) (or (not (<= 0 (+ (+ (+ var7 (- 1)) (* (- 2) var12)) (- 1)))) (<= 0 (+ (+ var7 (- 1)) (- 1))))) (or (not (<= 0 (+ (* (- 1) (+ (+ var7 (- 1)) (* (- 2) var12))) (- 1)))) (<= 0 (+ (* (- 1) (+ var7 (- 1))) (- 1))))) (= var1 var12))) (= var0 (+ var6 var8)))) (and (and (and (and (and (and (<= 0 (+ (+ 2 (* (- 1) var13)) (- 1))) (<= 0 (+ (+ 2 (* 1 var13)) (- 1)))) (or (not (<= 0 (+ var13 (- 1)))) (<= 0 (+ var7 (- 1))))) (or (not (<= 0 (+ (* (- 1) var13) (- 1)))) (<= 0 (+ (* (- 1) var7) (- 1))))) (= var7 (+ (* 2 var14) var13))) (= var13 1)) (not (= var7 0)))))) (inv_main18 (+ var5 1) var4 var3 var2 var1 var0))))
(assert (forall ((var0 Int) (var1 Int) (var2 Int) (var3 Int) (var4 Int) (var5 Int) (var6 Int) (var7 Int) (var8 Int) (var9 Int) (var10 Int) (var11 Int) (var12 Int) (var13 Int) (var14 Int)) (or (not (and (inv_main4 var14 var13 var12 var11 var10 var9) (and (<= 0 (+ (+ 1 (* (- 1) var8)) (- 1))) (and (not (= var7 0)) (and (and (and (and (and (and (= var8 var14) (= var6 var5)) (= var4 var3)) (= var2 var11)) (= var1 var10)) (= var0 var9)) (or (and (<= 0 (+ var3 (- 1))) (= var7 1)) (and (not (<= 0 (+ var3 (- 1)))) (= var7 0)))))))) (inv_main19 (+ var8 1) var6 var4 var6 var4 0))))
(assert (forall ((var0 Int) (var1 Int) (var2 Int) (var3 Int) (var4 Int) (var5 Int) (var6 Int) (var7 Int) (var8 Int) (var9 Int) (var10 Int) (var11 Int) (var12 Int) (var13 Int) (var14 Int)) (or (not (and (inv_main19 var11 var10 var9 var8 var7 var6) (and (and (<= 0 (+ (+ 1 (* (- 1) var5)) (- 1))) (and (and (and (and (and (= var5 var11) (= var4 var10)) (= var3 var9)) (= var2 (* 2 var8))) (and (and (and (and (<= 0 (+ (+ 2 (* (- 1) (+ var7 (* (- 2) var12)))) (- 1))) (<= 0 (+ (+ 2 (* 1 (+ var7 (* (- 2) var12)))) (- 1)))) (or (not (<= 0 (+ (+ var7 (* (- 2) var12)) (- 1)))) (<= 0 (+ var7 (- 1))))) (or (not (<= 0 (+ (* (- 1) (+ var7 (* (- 2) var12))) (- 1)))) (<= 0 (+ (* (- 1) var7) (- 1))))) (= var1 var12))) (= var0 var6))) (and (not (or (not (and (and (and (and (<= 0 (+ (+ 2 (* (- 1) var13)) (- 1))) (<= 0 (+ (+ 2 (* 1 var13)) (- 1)))) (or (not (<= 0 (+ var13 (- 1)))) (<= 0 (+ var7 (- 1))))) (or (not (<= 0 (+ (* (- 1) var13) (- 1)))) (<= 0 (+ (* (- 1) var7) (- 1))))) (= var7 (+ (* 2 var14) var13)))) (= var13 1))) (not (= var7 0)))))) (inv_main19 (+ var5 1) var4 var3 var2 var1 var0))))
(assert (forall ((var0 Int) (var1 Int) (var2 Int) (var3 Int) (var4 Int) (var5 Int) (var6 Int) (var7 Int) (var8 Int) (var9 Int) (var10 Int) (var11 Int) (var12 Int) (var13 Int) (var14 Int)) (or (not (and (inv_main19 var11 var10 var9 var8 var7 var6) (and (and (<= 0 (+ (+ 1 (* (- 1) var5)) (- 1))) (and (and (and (and (and (= var5 var11) (= var4 var10)) (= var3 var9)) (= var2 (* 2 var8))) (and (and (and (and (<= 0 (+ (+ 2 (* (- 1) (+ (+ var7 (- 1)) (* (- 2) var12)))) (- 1))) (<= 0 (+ (+ 2 (* 1 (+ (+ var7 (- 1)) (* (- 2) var12)))) (- 1)))) (or (not (<= 0 (+ (+ (+ var7 (- 1)) (* (- 2) var12)) (- 1)))) (<= 0 (+ (+ var7 (- 1)) (- 1))))) (or (not (<= 0 (+ (* (- 1) (+ (+ var7 (- 1)) (* (- 2) var12))) (- 1)))) (<= 0 (+ (* (- 1) (+ var7 (- 1))) (- 1))))) (= var1 var12))) (= var0 (+ var6 var8)))) (and (and (and (and (and (and (<= 0 (+ (+ 2 (* (- 1) var13)) (- 1))) (<= 0 (+ (+ 2 (* 1 var13)) (- 1)))) (or (not (<= 0 (+ var13 (- 1)))) (<= 0 (+ var7 (- 1))))) (or (not (<= 0 (+ (* (- 1) var13) (- 1)))) (<= 0 (+ (* (- 1) var7) (- 1))))) (= var7 (+ (* 2 var14) var13))) (= var13 1)) (not (= var7 0)))))) (inv_main19 (+ var5 1) var4 var3 var2 var1 var0))))
(assert (forall ((var0 Int) (var1 Int) (var2 Int) (var3 Int) (var4 Int) (var5 Int)) (not (and (inv_main19 var5 var4 var3 var2 var1 var0) (not (= (+ var0 (* var2 var1)) (* var4 var3)))))))
(assert (forall ((var0 Int) (var1 Int) (var2 Int) (var3 Int) (var4 Int) (var5 Int)) (not (and (inv_main18 var5 var4 var3 var2 var1 var0) (not (= var0 (* var4 var3)))))))
(check-sat)
